7


0 5 0 5 0 5 4
5 0 9 7 3 8 6
0 9 0 9 4 4 4
5 7 9 0 1 1 9
0 3 4 1 0 5 5
5 8 4 1 5 0 4
4 6 4 9 5 4 0

0 0 6 1 1 8 4
0 0 1 0 3 1 3
6 1 0 8 8 4 2
1 0 8 0 7 6 4
1 3 8 7 0 0 6
8 1 4 6 0 0 9
4 3 2 4 6 9 0

51 27 14  9  0 18  0
 0  1 22 17  0 41 13
 2  0 13 22  2 12 27
38 11  0  0 22 13 14
62 56  0 67  1  0  5
61  0  3 14  9  1 67
41 12 23  0 18 41  0

